
Welcome to IBM(R) ILOG(R) CPLEX(R) Interactive Optimizer 22.1.1.0
  with Simplex, Mixed Integer & Barrier Optimizers
5725-A06 5725-A29 5724-Y48 5724-Y49 5724-Y54 5724-Y55 5655-Y21
Copyright IBM Corp. 1988, 2022.  All Rights Reserved.

Type 'help' for a list of available commands.
Type 'help' followed by a command name for more
information on commands.

CPLEX> Selected objective sense:  MINIMIZE
Selected objective  name:  00000000
Selected RHS        name:  RHS1
Selected bound      name:  BOUND
Problem 'ee.mps' read.
Read time = 0.02 sec. (3.14 ticks)
CPLEX> New value for time limit in seconds: 7200
CPLEX> New value for parallel optimization mode: -1
CPLEX> New value for default parallel thread count: 40
CPLEX> New value for mixed integer optimality gap tolerance: 1e-13
CPLEX> Version identifier: 22.1.1.0 | 2022-11-28 | 9160aff4d
CPXPARAM_Threads                                 40
CPXPARAM_Parallel                                -1
CPXPARAM_TimeLimit                               7200
CPXPARAM_MIP_Tolerances_MIPGap                   1e-13
Found incumbent of value 0.000000 after 0.00 sec. (0.31 ticks)
Tried aggregator 2 times.
MIP Presolve eliminated 179 rows and 2745 columns.
MIP Presolve modified 5862 coefficients.
Aggregator did 713 substitutions.
Reduced MIP has 3624 rows, 7739 columns, and 28645 nonzeros.
Reduced MIP has 7739 binaries, 0 generals, 0 SOSs, and 0 indicators.
Presolve time = 0.07 sec. (68.56 ticks)
Probing fixed 138 vars, tightened 0 bounds.
Probing time = 0.07 sec. (40.00 ticks)
Tried aggregator 2 times.
Detecting symmetries...
MIP Presolve eliminated 46 rows and 191 columns.
MIP Presolve modified 15 coefficients.
Aggregator did 41 substitutions.
Reduced MIP has 3537 rows, 7493 columns, and 27770 nonzeros.
Reduced MIP has 7493 binaries, 0 generals, 0 SOSs, and 0 indicators.
Presolve time = 0.07 sec. (74.15 ticks)
Probing fixed 17 vars, tightened 0 bounds.
Probing time = 0.07 sec. (36.79 ticks)
Clique table members: 18114.
MIP emphasis: balance optimality and feasibility.
MIP search method: dynamic search.
Parallel mode: opportunistic, using up to 40 threads.
Root relaxation solution time = 0.09 sec. (81.86 ticks)

        Nodes                                         Cuts/
   Node  Left     Objective  IInf  Best Integer    Best Bound    ItCnt     Gap

*     0+    0                            0.0000  -1.31000e+13              --- 
*     0+    0                      -3.18000e+12  -1.31000e+13           311.95%
*     0+    0                      -5.38000e+12  -1.31000e+13           143.49%
*     0+    0                      -5.50000e+12  -1.31000e+13           138.18%
      0     0  -1.30900e+13    70  -5.50000e+12  -1.30900e+13     2124  138.00%
*     0+    0                      -1.30900e+13  -1.30900e+13             0.00%
*     0+    0                      -1.30900e+13  -1.30900e+13             0.00%
      0     0  -1.30900e+13    79  -1.30900e+13      Cuts: 61     2760    0.00%
*     0+    0                      -1.30900e+13  -1.30900e+13             0.00%
*     0+    0                      -1.30900e+13  -1.30900e+13             0.00%
      0     0  -1.30900e+13   148  -1.30900e+13      Cuts: 40     2992    0.00%
*     0+    0                      -1.30900e+13  -1.30900e+13             0.00%
      0     0  -1.00000e+75     0  -1.30900e+13  -1.30900e+13     2992    0.00%
Detecting symmetries...

Repeating presolve.
Tried aggregator 2 times.
MIP Presolve eliminated 1404 rows and 3215 columns.
MIP Presolve modified 84 coefficients.
Aggregator did 385 substitutions.
Reduced MIP has 1748 rows, 3855 columns, and 13535 nonzeros.
Reduced MIP has 3855 binaries, 0 generals, 0 SOSs, and 0 indicators.
Presolve time = 0.05 sec. (48.22 ticks)
Probing fixed 72 vars, tightened 0 bounds.
Probing time = 0.05 sec. (14.18 ticks)
Tried aggregator 2 times.
MIP Presolve eliminated 61 rows and 92 columns.
Aggregator did 30 substitutions.
Reduced MIP has 1657 rows, 3731 columns, and 13020 nonzeros.
Reduced MIP has 3731 binaries, 0 generals, 0 SOSs, and 0 indicators.
Presolve time = 0.02 sec. (20.58 ticks)
Probing time = 0.04 sec. (12.78 ticks)
Tried aggregator 1 time.
Detecting symmetries...
MIP Presolve eliminated 15 rows and 9 columns.
Reduced MIP has 1642 rows, 3722 columns, and 12975 nonzeros.
Reduced MIP has 3722 binaries, 0 generals, 0 SOSs, and 0 indicators.
Presolve time = 0.02 sec. (14.15 ticks)
Represolve time = 0.20 sec. (131.13 ticks)
Probing time = 0.03 sec. (8.16 ticks)
Clique table members: 8788.
MIP emphasis: balance optimality and feasibility.
MIP search method: dynamic search.
Parallel mode: opportunistic, using up to 40 threads.
Root relaxation solution time = 0.06 sec. (34.71 ticks)

        Nodes                                         Cuts/
   Node  Left     Objective  IInf  Best Integer    Best Bound    ItCnt     Gap

*     0+    0                      -1.30900e+13  -1.30900e+13             0.00%
      0     0  -1.30900e+13    83  -1.30900e+13  -1.30900e+13     4087    0.00%
      0     0  -1.30900e+13    62  -1.30900e+13      Cuts: 77     4270    0.00%
      0     0  -1.30900e+13   138  -1.30900e+13      Cuts: 45     4567    0.00%
      0     0  -1.30900e+13   150  -1.30900e+13      Cuts: 64     5056    0.00%
*     0+    0                      -1.30900e+13  -1.30900e+13             0.00%
*     0+    0                      -1.30900e+13  -1.30900e+13             0.00%
      0     2  -1.30900e+13   136  -1.30900e+13  -1.30900e+13     5056    0.00%
Elapsed time = 2.73 sec. (1660.88 ticks, tree = 0.02 MB, solutions = 12)
    514    37  -1.30900e+13     9  -1.30900e+13  -1.30900e+13    50969    0.00%

GUB cover cuts applied:  5
Clique cuts applied:  21
Cover cuts applied:  245
Flow cuts applied:  14
Mixed integer rounding cuts applied:  4
Zero-half cuts applied:  19
Lift and project cuts applied:  13
Gomory fractional cuts applied:  13

Root node processing (before b&c):
  Real time             =    2.28 sec. (1660.43 ticks)
Parallel b&c, 40 threads:
  Real time             =    1.73 sec. (463.71 ticks)
  Sync time (average)   =    1.10 sec.
  Wait time (average)   =    0.00 sec.
                          ------------
Total (root+branch&cut) =    4.01 sec. (2124.14 ticks)

Solution pool: 12 solutions saved.

MIP - Integer optimal solution:  Objective = -1.3089999890e+13
Solution time =    4.08 sec.  Iterations = 79114  Nodes = 640
Deterministic time = 2124.18 ticks  (520.10 ticks/sec)

CPLEX> Solution 'p13' written to file 'ee.sol'.
CPLEX> 